XCrySDen XSF file
1.0
        3.8901956081         0.0000000000         0.0000000000
       -1.9450978041         3.3690082223         0.0000000000
        0.0000000000         0.0000000000        23.7135486603
   Si    H
    2    2
Direct
     0.666666687         0.333333343         0.484848052
     0.333333343         0.666666687         0.515151978
     0.666666687         0.333333343         0.421522796
     0.333333343         0.666666687         0.578477204
